# Objective value = 4.7879999995210992e+03
y 4.7879999995210992e+03
x1 350
r1 1
y1 3079.9999995211
x2 6054
r2 1
y2 1316
x3 4304
r3 0
y3 2478
x4 2184
r4 1
y4 0
x5 3584
r5 0
y5 3401.9999995211
x6 5396
r6 0
y6 0
x7 0
r7 0
y7 3794
x8 1246
r8 0
y8 448
x9 14
r9 1
y9 1834
x10 1890
r10 0
y10 448
x11 7258
r11 1
y11 0
x12 406
r12 1
y12 322
x13 4228
r13 0
y13 0
x14 1778
r14 0
y14 2155.9999995211
x15 0
r15 0
y15 168
x16 4494
r16 1
y16 0
x17 490
r17 1
y17 1288
x18 7608
r18 1
y18 1736
x19 7608
r19 0
y19 3962
x20 98
r20 1
y20 2996
x21 14
r21 0
y21 1008
x22 7636
r22 1
y22 784
x23 5564
r23 0
y23 1988
x24 4228
r24 1
y24 672
x25 406
r25 0
y25 0
x26 4990
r26 1
y26 882
x27 812
r27 0
y27 448
x28 4990
r28 1
y28 1400
x29 4494
r29 0
y29 322
x30 5292
r30 1
y30 3.4859999995210992e+03
x31 5718
r31 1
y31 924
x32 4206
r32 0
y32 1470
x33 6488
r33 1
y33 2898
x34 7440
r34 0
y34 2814
x35 6020
r35 1
y35 3486
x36 1190
r36 0
y36 0
x37 4346
r37 0
y37 1918
x38 4844
r38 0
y38 3486
x39 7636
r39 0
y39 0
x40 6768
r40 1
y40 882
x41 6586
r41 1
y41 2534
x42 28
r42 1
y42 0
x43 6698
r43 0
y43 2002
x44 476
r44 1
y44 1694
x45 616
r45 1
y45 2324
x46 3794
r46 1
y46 2197.9999995211
x47 3794
r47 0
y47 644
x48 4116
r48 1
y48 3.4859999995211069e+03
x49 3794
r49 0
y49 1456
p12 1
q12 1
p13 0
q13 0
p14 1
q14 1
p15 0
q15 0
p16 1
q16 1
p17 1
q17 0
p18 1
q18 1
p19 1
q19 1
p110 1
q110 1
p111 0
q111 0
p112 1
q112 1
p113 0
q113 0
p114 1
q114 1
p115 1
q115 1
p116 1
q116 1
p117 1
q117 1
p118 0
q118 0
p119 0
q119 0
p120 1
q120 0
p121 1
q121 1
p122 0
q122 0
p123 0
q123 0
p124 1
q124 1
p125 1
q125 1
p126 1
q126 1
p127 1
q127 1
p128 1
q128 1
p129 1
q129 1
p130 0
q130 0
p131 0
q131 0
p132 1
q132 1
p133 0
q133 0
p134 0
q134 0
p135 0
q135 0
p136 1
q136 1
p137 1
q137 1
p138 0
q138 0
p139 0
q139 0
p140 1
q140 1
p141 0
q141 0
p142 1
q142 1
p143 0
q143 0
p144 1
q144 1
p145 1
q145 1
p146 0
q146 0
p147 0
q147 0
p148 0
q148 0
p149 1
q149 1
p23 0
q23 1
p24 1
q24 0
p25 1
q25 0
p26 1
q26 1
p27 1
q27 0
p28 1
q28 0
p29 1
q29 0
p210 1
q210 0
p211 1
q211 1
p212 1
q212 0
p213 1
q213 0
p214 1
q214 0
p215 1
q215 0
p216 1
q216 1
p217 1
q217 0
p218 0
q218 0
p219 0
q219 1
p220 1
q220 0
p221 1
q221 0
p222 0
q222 0
p223 0
q223 1
p224 1
q224 0
p225 1
q225 0
p226 1
q226 1
p227 1
q227 0
p228 1
q228 0
p229 1
q229 0
p230 0
q230 1
p231 1
q231 1
p232 1
q232 0
p233 0
q233 1
p234 0
q234 1
p235 0
q235 1
p236 1
q236 0
p237 1
q237 0
p238 0
q238 1
p239 0
q239 0
p240 1
q240 1
p241 0
q241 1
p242 1
q242 0
p243 0
q243 1
p244 1
q244 0
p245 1
q245 0
p246 1
q246 0
p247 1
q247 0
p248 0
q248 1
p249 1
q249 0
p34 1
q34 0
p35 1
q35 0
p36 1
q36 1
p37 1
q37 0
p38 1
q38 0
p39 1
q39 0
p310 1
q310 0
p311 1
q311 1
p312 1
q312 0
p313 1
q313 1
p314 1
q314 0
p315 1
q315 0
p316 1
q316 1
p317 1
q317 0
p318 0
q318 0
p319 0
q319 0
p320 1
q320 0
p321 1
q321 0
p322 0
q322 0
p323 1
q323 1
p324 1
q324 1
p325 1
q325 0
p326 1
q326 1
p327 1
q327 0
p328 1
q328 1
p329 1
q329 1
p330 0
q330 1
p331 1
q331 1
p332 1
q332 1
p333 0
q333 0
p334 0
q334 0
p335 0
q335 1
p336 1
q336 0
p337 1
q337 1
p338 0
q338 1
p339 1
q339 1
p340 1
q340 1
p341 0
q341 0
p342 1
q342 0
p343 0
q343 0
p344 1
q344 0
p345 1
q345 0
p346 1
q346 0
p347 1
q347 0
p348 0
q348 1
p349 1
q349 1
p45 0
q45 1
p46 0
q46 0
p47 1
q47 0
p48 1
q48 0
p49 1
q49 0
p410 1
q410 0
p411 0
q411 0
p412 1
q412 0
p413 0
q413 0
p414 1
q414 0
p415 1
q415 0
p416 0
q416 0
p417 1
q417 0
p418 0
q418 0
p419 0
q419 0
p420 1
q420 0
p421 1
q421 0
p422 0
q422 0
p423 0
q423 0
p424 0
q424 0
p425 1
q425 0
p426 0
q426 0
p427 1
q427 0
p428 0
q428 0
p429 0
q429 0
p430 0
q430 0
p431 0
q431 0
p432 0
q432 0
p433 0
q433 0
p434 0
q434 0
p435 0
q435 0
p436 1
q436 0
p437 0
q437 0
p438 0
q438 0
p439 0
q439 0
p440 0
q440 0
p441 0
q441 0
p442 1
q442 0
p443 0
q443 0
p444 1
q444 0
p445 1
q445 0
p446 0
q446 0
p447 0
q447 0
p448 0
q448 0
p449 0
q449 0
p56 0
q56 0
p57 1
q57 0
p58 1
q58 0
p59 1
q59 0
p510 1
q510 0
p511 0
q511 0
p512 1
q512 1
p513 1
q513 1
p514 1
q514 0
p515 1
q515 1
p516 1
q516 1
p517 1
q517 0
p518 0
q518 0
p519 0
q519 0
p520 1
q520 0
p521 1
q521 1
p522 0
q522 0
p523 0
q523 0
p524 1
q524 1
p525 1
q525 0
p526 1
q526 1
p527 1
q527 1
p528 1
q528 1
p529 1
q529 1
p530 0
q530 0
p531 0
q531 0
p532 1
q532 1
p533 0
q533 0
p534 0
q534 0
p535 0
q535 0
p536 1
q536 0
p537 1
q537 1
p538 0
q538 0
p539 0
q539 0
p540 1
q540 1
p541 1
q541 1
p542 1
q542 0
p543 0
q543 0
p544 1
q544 0
p545 1
q545 0
p546 1
q546 1
p547 1
q547 1
p548 0
q548 0
p549 1
q549 1
p67 1
q67 0
p68 1
q68 0
p69 1
q69 0
p610 1
q610 0
p611 0
q611 0
p612 1
q612 0
p613 1
q613 0
p614 1
q614 0
p615 1
q615 0
p616 1
q616 0
p617 1
q617 0
p618 0
q618 0
p619 0
q619 1
p620 1
q620 0
p621 1
q621 0
p622 0
q622 0
p623 0
q623 1
p624 1
q624 0
p625 1
q625 0
p626 0
q626 1
p627 1
q627 0
p628 0
q628 1
p629 1
q629 0
p630 0
q630 1
p631 0
q631 1
p632 0
q632 1
p633 0
q633 1
p634 0
q634 1
p635 0
q635 1
p636 1
q636 0
p637 0
q637 1
p638 0
q638 1
p639 0
q639 0
p640 0
q640 1
p641 0
q641 1
p642 1
q642 0
p643 0
q643 1
p644 1
q644 0
p645 1
q645 0
p646 1
q646 0
p647 1
q647 0
p648 0
q648 1
p649 1
q649 0
p78 0
q78 0
p79 1
q79 1
p710 0
q710 0
p711 0
q711 0
p712 1
q712 1
p713 0
q713 0
p714 0
q714 0
p715 1
q715 1
p716 0
q716 0
p717 0
q717 0
p718 0
q718 0
p719 0
q719 0
p720 1
q720 1
p721 1
q721 1
p722 0
q722 0
p723 0
q723 0
p724 0
q724 0
p725 0
q725 0
p726 0
q726 0
p727 0
q727 0
p728 0
q728 0
p729 0
q729 0
p730 0
q730 0
p731 0
q731 0
p732 0
q732 0
p733 0
q733 0
p734 0
q734 0
p735 0
q735 0
p736 0
q736 0
p737 0
q737 0
p738 0
q738 0
p739 0
q739 0
p740 0
q740 0
p741 0
q741 0
p742 1
q742 1
p743 0
q743 0
p744 0
q744 0
p745 0
q745 0
p746 0
q746 0
p747 0
q747 0
p748 0
q748 0
p749 0
q749 0
p89 1
q89 0
p810 0
q810 0
p811 0
q811 0
p812 1
q812 0
p813 0
q813 0
p814 0
q814 1
p815 1
q815 0
p816 0
q816 0
p817 1
q817 0
p818 0
q818 0
p819 0
q819 0
p820 1
q820 0
p821 1
q821 0
p822 0
q822 0
p823 0
q823 0
p824 0
q824 0
p825 1
q825 0
p826 0
q826 0
p827 1
q827 0
p828 0
q828 0
p829 0
q829 0
p830 0
q830 1
p831 0
q831 0
p832 0
q832 0
p833 0
q833 0
p834 0
q834 0
p835 0
q835 0
p836 1
q836 1
p837 0
q837 0
p838 0
q838 0
p839 0
q839 0
p840 0
q840 0
p841 0
q841 0
p842 1
q842 0
p843 0
q843 0
p844 0
q844 1
p845 0
q845 1
p846 0
q846 0
p847 0
q847 0
p848 0
q848 1
p849 0
q849 0
p910 0
q910 0
p911 0
q911 0
p912 1
q912 1
p913 0
q913 0
p914 0
q914 0
p915 1
q915 1
p916 0
q916 0
p917 0
q917 0
p918 0
q918 0
p919 0
q919 0
p920 0
q920 1
p921 1
q921 1
p922 0
q922 0
p923 0
q923 0
p924 0
q924 0
p925 1
q925 1
p926 0
q926 0
p927 1
q927 1
p928 0
q928 0
p929 0
q929 0
p930 0
q930 0
p931 0
q931 0
p932 0
q932 0
p933 0
q933 0
p934 0
q934 0
p935 0
q935 0
p936 1
q936 1
p937 0
q937 0
p938 0
q938 0
p939 0
q939 0
p940 0
q940 0
p941 0
q941 0
p942 1
q942 1
p943 0
q943 0
p944 0
q944 0
p945 0
q945 0
p946 0
q946 0
p947 0
q947 0
p948 0
q948 0
p949 0
q949 0
p1011 0
q1011 0
p1012 1
q1012 0
p1013 0
q1013 0
p1014 0
q1014 1
p1015 1
q1015 0
p1016 0
q1016 0
p1017 1
q1017 0
p1018 0
q1018 0
p1019 0
q1019 0
p1020 0
q1020 1
p1021 1
q1021 0
p1022 0
q1022 0
p1023 0
q1023 0
p1024 0
q1024 0
p1025 1
q1025 0
p1026 0
q1026 0
p1027 1
q1027 0
p1028 0
q1028 0
p1029 0
q1029 0
p1030 0
q1030 0
p1031 0
q1031 0
p1032 0
q1032 0
p1033 0
q1033 0
p1034 0
q1034 0
p1035 0
q1035 0
p1036 1
q1036 1
p1037 0
q1037 0
p1038 0
q1038 0
p1039 0
q1039 0
p1040 0
q1040 0
p1041 0
q1041 0
p1042 1
q1042 0
p1043 0
q1043 0
p1044 1
q1044 0
p1045 1
q1045 0
p1046 0
q1046 0
p1047 0
q1047 0
p1048 0
q1048 0
p1049 0
q1049 0
p1112 1
q1112 0
p1113 1
q1113 0
p1114 1
q1114 0
p1115 1
q1115 0
p1116 1
q1116 0
p1117 1
q1117 0
p1118 0
q1118 1
p1119 0
q1119 1
p1120 1
q1120 0
p1121 1
q1121 0
p1122 0
q1122 0
p1123 0
q1123 1
p1124 1
q1124 0
p1125 1
q1125 0
p1126 1
q1126 0
p1127 1
q1127 0
p1128 1
q1128 0
p1129 1
q1129 0
p1130 0
q1130 1
p1131 0
q1131 1
p1132 1
q1132 0
p1133 0
q1133 1
p1134 0
q1134 1
p1135 1
q1135 0
p1136 1
q1136 0
p1137 1
q1137 0
p1138 0
q1138 1
p1139 0
q1139 0
p1140 0
q1140 1
p1141 0
q1141 1
p1142 1
q1142 0
p1143 0
q1143 1
p1144 1
q1144 0
p1145 1
q1145 0
p1146 1
q1146 0
p1147 1
q1147 0
p1148 1
q1148 0
p1149 1
q1149 0
p1213 0
q1213 0
p1214 0
q1214 0
p1215 1
q1215 0
p1216 0
q1216 0
p1217 0
q1217 1
p1218 0
q1218 0
p1219 0
q1219 0
p1220 0
q1220 1
p1221 1
q1221 0
p1222 0
q1222 0
p1223 0
q1223 0
p1224 0
q1224 0
p1225 1
q1225 1
p1226 0
q1226 0
p1227 0
q1227 0
p1228 0
q1228 0
p1229 0
q1229 0
p1230 0
q1230 0
p1231 0
q1231 0
p1232 0
q1232 0
p1233 0
q1233 0
p1234 0
q1234 0
p1235 0
q1235 0
p1236 0
q1236 0
p1237 0
q1237 0
p1238 0
q1238 0
p1239 0
q1239 0
p1240 0
q1240 0
p1241 0
q1241 0
p1242 1
q1242 0
p1243 0
q1243 0
p1244 0
q1244 1
p1245 0
q1245 1
p1246 0
q1246 0
p1247 0
q1247 0
p1248 0
q1248 0
p1249 0
q1249 0
p1314 0
q1314 1
p1315 1
q1315 0
p1316 0
q1316 0
p1317 1
q1317 0
p1318 0
q1318 0
p1319 0
q1319 0
p1320 1
q1320 0
p1321 1
q1321 0
p1322 0
q1322 0
p1323 0
q1323 1
p1324 0
q1324 1
p1325 1
q1325 0
p1326 0
q1326 1
p1327 1
q1327 0
p1328 0
q1328 1
p1329 0
q1329 0
p1330 0
q1330 1
p1331 0
q1331 0
p1332 0
q1332 1
p1333 0
q1333 0
p1334 0
q1334 0
p1335 0
q1335 1
p1336 1
q1336 0
p1337 0
q1337 1
p1338 0
q1338 1
p1339 0
q1339 0
p1340 0
q1340 1
p1341 0
q1341 0
p1342 1
q1342 0
p1343 0
q1343 0
p1344 1
q1344 0
p1345 1
q1345 0
p1346 0
q1346 1
p1347 1
q1347 0
p1348 0
q1348 1
p1349 1
q1349 0
p1415 1
q1415 0
p1416 0
q1416 0
p1417 1
q1417 0
p1418 0
q1418 0
p1419 0
q1419 0
p1420 1
q1420 0
p1421 1
q1421 0
p1422 0
q1422 0
p1423 0
q1423 0
p1424 0
q1424 0
p1425 1
q1425 0
p1426 0
q1426 0
p1427 1
q1427 1
p1428 0
q1428 0
p1429 0
q1429 0
p1430 0
q1430 0
p1431 0
q1431 0
p1432 0
q1432 0
p1433 0
q1433 0
p1434 0
q1434 0
p1435 0
q1435 0
p1436 1
q1436 1
p1437 0
q1437 0
p1438 0
q1438 0
p1439 0
q1439 0
p1440 0
q1440 0
p1441 0
q1441 0
p1442 1
q1442 0
p1443 0
q1443 0
p1444 1
q1444 0
p1445 1
q1445 0
p1446 0
q1446 0
p1447 0
q1447 0
p1448 0
q1448 0
p1449 0
q1449 0
p1516 0
q1516 0
p1517 0
q1517 0
p1518 0
q1518 0
p1519 0
q1519 0
p1520 0
q1520 1
p1521 0
q1521 1
p1522 0
q1522 0
p1523 0
q1523 0
p1524 0
q1524 0
p1525 0
q1525 0
p1526 0
q1526 0
p1527 0
q1527 0
p1528 0
q1528 0
p1529 0
q1529 0
p1530 0
q1530 0
p1531 0
q1531 0
p1532 0
q1532 0
p1533 0
q1533 0
p1534 0
q1534 0
p1535 0
q1535 0
p1536 0
q1536 0
p1537 0
q1537 0
p1538 0
q1538 0
p1539 0
q1539 0
p1540 0
q1540 0
p1541 0
q1541 0
p1542 1
q1542 1
p1543 0
q1543 0
p1544 0
q1544 0
p1545 0
q1545 0
p1546 0
q1546 0
p1547 0
q1547 0
p1548 0
q1548 0
p1549 0
q1549 0
p1617 1
q1617 0
p1618 0
q1618 1
p1619 0
q1619 1
p1620 1
q1620 0
p1621 1
q1621 0
p1622 0
q1622 0
p1623 0
q1623 1
p1624 0
q1624 1
p1625 1
q1625 0
p1626 0
q1626 1
p1627 1
q1627 0
p1628 0
q1628 1
p1629 0
q1629 1
p1630 0
q1630 1
p1631 0
q1631 0
p1632 0
q1632 1
p1633 0
q1633 1
p1634 0
q1634 1
p1635 0
q1635 1
p1636 1
q1636 0
p1637 0
q1637 1
p1638 0
q1638 1
p1639 0
q1639 0
p1640 0
q1640 1
p1641 0
q1641 1
p1642 1
q1642 0
p1643 0
q1643 1
p1644 1
q1644 0
p1645 1
q1645 0
p1646 0
q1646 1
p1647 0
q1647 1
p1648 0
q1648 1
p1649 1
q1649 0
p1718 0
q1718 0
p1719 0
q1719 0
p1720 1
q1720 0
p1721 1
q1721 0
p1722 0
q1722 0
p1723 0
q1723 0
p1724 0
q1724 0
p1725 1
q1725 1
p1726 0
q1726 0
p1727 1
q1727 1
p1728 0
q1728 0
p1729 0
q1729 0
p1730 0
q1730 0
p1731 0
q1731 0
p1732 0
q1732 0
p1733 0
q1733 0
p1734 0
q1734 0
p1735 0
q1735 1
p1736 1
q1736 1
p1737 0
q1737 0
p1738 0
q1738 0
p1739 0
q1739 0
p1740 0
q1740 0
p1741 0
q1741 0
p1742 1
q1742 0
p1743 0
q1743 0
p1744 0
q1744 1
p1745 0
q1745 1
p1746 0
q1746 0
p1747 0
q1747 0
p1748 0
q1748 0
p1749 0
q1749 0
p1819 0
q1819 1
p1820 1
q1820 0
p1821 1
q1821 0
p1822 1
q1822 1
p1823 1
q1823 0
p1824 1
q1824 0
p1825 1
q1825 0
p1826 1
q1826 0
p1827 1
q1827 0
p1828 1
q1828 0
p1829 1
q1829 0
p1830 0
q1830 1
p1831 1
q1831 0
p1832 1
q1832 0
p1833 1
q1833 0
p1834 0
q1834 1
p1835 1
q1835 0
p1836 1
q1836 0
p1837 1
q1837 0
p1838 1
q1838 0
p1839 1
q1839 1
p1840 1
q1840 1
p1841 1
q1841 0
p1842 1
q1842 0
p1843 1
q1843 0
p1844 1
q1844 0
p1845 1
q1845 0
p1846 1
q1846 0
p1847 1
q1847 0
p1848 1
q1848 0
p1849 1
q1849 0
p1920 1
q1920 0
p1921 1
q1921 0
p1922 1
q1922 1
p1923 1
q1923 0
p1924 1
q1924 0
p1925 1
q1925 0
p1926 1
q1926 1
p1927 1
q1927 0
p1928 1
q1928 0
p1929 1
q1929 0
p1930 1
q1930 0
p1931 1
q1931 0
p1932 1
q1932 0
p1933 1
q1933 0
p1934 1
q1934 1
p1935 1
q1935 0
p1936 1
q1936 0
p1937 1
q1937 0
p1938 1
q1938 0
p1939 1
q1939 1
p1940 1
q1940 1
p1941 1
q1941 0
p1942 1
q1942 0
p1943 1
q1943 0
p1944 1
q1944 0
p1945 1
q1945 0
p1946 1
q1946 0
p1947 1
q1947 0
p1948 1
q1948 0
p1949 1
q1949 0
p2021 1
q2021 1
p2022 0
q2022 0
p2023 0
q2023 0
p2024 0
q2024 0
p2025 1
q2025 1
p2026 1
q2026 1
p2027 1
q2027 1
p2028 0
q2028 0
p2029 0
q2029 0
p2030 0
q2030 0
p2031 0
q2031 0
p2032 0
q2032 0
p2033 0
q2033 0
p2034 0
q2034 0
p2035 0
q2035 0
p2036 0
q2036 0
p2037 0
q2037 0
p2038 0
q2038 0
p2039 0
q2039 0
p2040 0
q2040 0
p2041 0
q2041 0
p2042 1
q2042 1
p2043 0
q2043 0
p2044 0
q2044 0
p2045 0
q2045 0
p2046 0
q2046 0
p2047 0
q2047 0
p2048 0
q2048 0
p2049 0
q2049 0
p2122 0
q2122 0
p2123 0
q2123 0
p2124 0
q2124 0
p2125 1
q2125 1
p2126 0
q2126 0
p2127 0
q2127 0
p2128 0
q2128 0
p2129 0
q2129 0
p2130 0
q2130 0
p2131 0
q2131 0
p2132 0
q2132 0
p2133 0
q2133 0
p2134 0
q2134 0
p2135 0
q2135 0
p2136 1
q2136 1
p2137 0
q2137 0
p2138 0
q2138 0
p2139 0
q2139 0
p2140 0
q2140 0
p2141 0
q2141 0
p2142 1
q2142 1
p2143 0
q2143 0
p2144 0
q2144 0
p2145 0
q2145 0
p2146 0
q2146 0
p2147 0
q2147 0
p2148 0
q2148 0
p2149 0
q2149 0
p2223 1
q2223 0
p2224 1
q2224 0
p2225 1
q2225 0
p2226 1
q2226 0
p2227 1
q2227 0
p2228 1
q2228 0
p2229 1
q2229 0
p2230 1
q2230 0
p2231 1
q2231 0
p2232 1
q2232 0
p2233 1
q2233 0
p2234 0
q2234 1
p2235 1
q2235 0
p2236 1
q2236 0
p2237 1
q2237 0
p2238 1
q2238 0
p2239 1
q2239 1
p2240 1
q2240 0
p2241 1
q2241 0
p2242 1
q2242 0
p2243 1
q2243 0
p2244 1
q2244 0
p2245 1
q2245 0
p2246 1
q2246 0
p2247 1
q2247 0
p2248 1
q2248 0
p2249 1
q2249 0
p2324 1
q2324 1
p2325 1
q2325 0
p2326 1
q2326 1
p2327 1
q2327 0
p2328 1
q2328 1
p2329 1
q2329 1
p2330 0
q2330 1
p2331 1
q2331 1
p2332 1
q2332 1
p2333 0
q2333 1
p2334 0
q2334 0
p2335 0
q2335 1
p2336 1
q2336 0
p2337 1
q2337 0
p2338 0
q2338 1
p2339 1
q2339 1
p2340 1
q2340 1
p2341 0
q2341 1
p2342 1
q2342 0
p2343 0
q2343 0
p2344 1
q2344 0
p2345 1
q2345 0
p2346 1
q2346 0
p2347 1
q2347 0
p2348 1
q2348 0
p2349 1
q2349 0
p2425 1
q2425 0
p2426 0
q2426 0
p2427 1
q2427 0
p2428 0
q2428 0
p2429 0
q2429 0
p2430 0
q2430 1
p2431 0
q2431 0
p2432 0
q2432 1
p2433 0
q2433 1
p2434 0
q2434 0
p2435 0
q2435 1
p2436 1
q2436 0
p2437 0
q2437 1
p2438 0
q2438 1
p2439 0
q2439 0
p2440 0
q2440 0
p2441 0
q2441 1
p2442 1
q2442 0
p2443 0
q2443 0
p2444 1
q2444 0
p2445 1
q2445 0
p2446 0
q2446 1
p2447 1
q2447 0
p2448 0
q2448 1
p2449 1
q2449 0
p2526 0
q2526 0
p2527 0
q2527 1
p2528 0
q2528 0
p2529 0
q2529 0
p2530 0
q2530 0
p2531 0
q2531 0
p2532 0
q2532 0
p2533 0
q2533 0
p2534 0
q2534 0
p2535 0
q2535 0
p2536 0
q2536 0
p2537 0
q2537 0
p2538 0
q2538 0
p2539 0
q2539 0
p2540 0
q2540 0
p2541 0
q2541 0
p2542 1
q2542 0
p2543 0
q2543 0
p2544 0
q2544 1
p2545 0
q2545 1
p2546 0
q2546 0
p2547 0
q2547 0
p2548 0
q2548 0
p2549 0
q2549 0
p2627 1
q2627 0
p2628 0
q2628 1
p2629 1
q2629 0
p2630 0
q2630 1
p2631 0
q2631 0
p2632 0
q2632 1
p2633 0
q2633 1
p2634 0
q2634 0
p2635 0
q2635 1
p2636 1
q2636 0
p2637 0
q2637 1
p2638 0
q2638 1
p2639 0
q2639 0
p2640 0
q2640 0
p2641 0
q2641 1
p2642 1
q2642 0
p2643 0
q2643 0
p2644 1
q2644 0
p2645 1
q2645 0
p2646 1
q2646 0
p2647 1
q2647 0
p2648 0
q2648 1
p2649 1
q2649 0
p2728 0
q2728 0
p2729 0
q2729 0
p2730 0
q2730 0
p2731 0
q2731 0
p2732 0
q2732 0
p2733 0
q2733 0
p2734 0
q2734 0
p2735 0
q2735 0
p2736 1
q2736 1
p2737 0
q2737 0
p2738 0
q2738 0
p2739 0
q2739 0
p2740 0
q2740 0
p2741 0
q2741 0
p2742 1
q2742 0
p2743 0
q2743 0
p2744 0
q2744 1
p2745 0
q2745 1
p2746 0
q2746 0
p2747 0
q2747 0
p2748 0
q2748 0
p2749 0
q2749 0
p2829 1
q2829 1
p2830 0
q2830 1
p2831 1
q2831 1
p2832 1
q2832 0
p2833 0
q2833 0
p2834 0
q2834 0
p2835 0
q2835 1
p2836 1
q2836 0
p2837 0
q2837 1
p2838 0
q2838 1
p2839 0
q2839 0
p2840 1
q2840 1
p2841 0
q2841 1
p2842 1
q2842 0
p2843 0
q2843 1
p2844 1
q2844 0
p2845 1
q2845 0
p2846 1
q2846 0
p2847 1
q2847 0
p2848 0
q2848 1
p2849 1
q2849 0
p2930 0
q2930 1
p2931 0
q2931 0
p2932 0
q2932 1
p2933 0
q2933 0
p2934 0
q2934 0
p2935 0
q2935 1
p2936 1
q2936 0
p2937 0
q2937 1
p2938 0
q2938 1
p2939 0
q2939 0
p2940 0
q2940 0
p2941 0
q2941 0
p2942 1
q2942 0
p2943 0
q2943 0
p2944 1
q2944 0
p2945 1
q2945 0
p2946 1
q2946 0
p2947 1
q2947 0
p2948 0
q2948 1
p2949 1
q2949 0
p3031 1
q3031 1
p3032 1
q3032 1
p3033 0
q3033 0
p3034 0
q3034 0
p3035 0
q3035 0
p3036 1
q3036 0
p3037 1
q3037 1
p3038 1
q3038 0
p3039 1
q3039 1
p3040 1
q3040 1
p3041 1
q3041 1
p3042 1
q3042 0
p3043 1
q3043 1
p3044 1
q3044 0
p3045 1
q3045 0
p3046 1
q3046 0
p3047 1
q3047 1
p3048 1
q3048 0
p3049 1
q3049 1
p3132 1
q3132 0
p3133 0
q3133 1
p3134 0
q3134 0
p3135 0
q3135 1
p3136 1
q3136 0
p3137 0
q3137 1
p3138 0
q3138 1
p3139 0
q3139 0
p3140 0
q3140 0
p3141 0
q3141 1
p3142 1
q3142 0
p3143 0
q3143 1
p3144 1
q3144 0
p3145 1
q3145 0
p3146 1
q3146 0
p3147 1
q3147 0
p3148 1
q3148 0
p3149 1
q3149 0
p3233 0
q3233 1
p3234 0
q3234 0
p3235 0
q3235 1
p3236 1
q3236 0
p3237 0
q3237 1
p3238 0
q3238 1
p3239 0
q3239 0
p3240 1
q3240 1
p3241 0
q3241 1
p3242 1
q3242 0
p3243 0
q3243 0
p3244 1
q3244 0
p3245 1
q3245 0
p3246 0
q3246 1
p3247 1
q3247 1
p3248 0
q3248 1
p3249 1
q3249 0
p3334 0
q3334 0
p3335 1
q3335 0
p3336 1
q3336 0
p3337 1
q3337 0
p3338 1
q3338 0
p3339 1
q3339 1
p3340 1
q3340 1
p3341 1
q3341 1
p3342 1
q3342 0
p3343 1
q3343 1
p3344 1
q3344 0
p3345 1
q3345 0
p3346 1
q3346 0
p3347 1
q3347 1
p3348 1
q3348 0
p3349 1
q3349 0
p3435 1
q3435 0
p3436 1
q3436 0
p3437 1
q3437 0
p3438 1
q3438 0
p3439 1
q3439 1
p3440 1
q3440 1
p3441 1
q3441 0
p3442 1
q3442 0
p3443 1
q3443 1
p3444 1
q3444 0
p3445 1
q3445 0
p3446 1
q3446 0
p3447 1
q3447 0
p3448 1
q3448 0
p3449 1
q3449 0
p3536 1
q3536 1
p3537 1
q3537 1
p3538 1
q3538 0
p3539 1
q3539 1
p3540 1
q3540 1
p3541 1
q3541 1
p3542 1
q3542 0
p3543 1
q3543 1
p3544 1
q3544 0
p3545 1
q3545 0
p3546 1
q3546 0
p3547 1
q3547 0
p3548 1
q3548 0
p3549 1
q3549 1
p3637 0
q3637 0
p3638 0
q3638 0
p3639 0
q3639 0
p3640 0
q3640 0
p3641 0
q3641 0
p3642 1
q3642 0
p3643 0
q3643 0
p3644 0
q3644 1
p3645 0
q3645 1
p3646 0
q3646 0
p3647 0
q3647 0
p3648 0
q3648 0
p3649 0
q3649 0
p3738 0
q3738 1
p3739 1
q3739 1
p3740 1
q3740 1
p3741 0
q3741 0
p3742 1
q3742 0
p3743 0
q3743 0
p3744 1
q3744 0
p3745 1
q3745 0
p3746 1
q3746 0
p3747 1
q3747 0
p3748 0
q3748 1
p3749 1
q3749 0
p3839 1
q3839 1
p3840 1
q3840 1
p3841 1
q3841 1
p3842 1
q3842 0
p3843 0
q3843 0
p3844 1
q3844 0
p3845 1
q3845 0
p3846 1
q3846 0
p3847 1
q3847 0
p3848 1
q3848 0
p3849 1
q3849 0
p3940 1
q3940 0
p3941 0
q3941 1
p3942 1
q3942 0
p3943 0
q3943 1
p3944 1
q3944 0
p3945 1
q3945 0
p3946 1
q3946 0
p3947 1
q3947 0
p3948 1
q3948 0
p3949 1
q3949 0
p4041 0
q4041 1
p4042 1
q4042 0
p4043 0
q4043 1
p4044 1
q4044 0
p4045 1
q4045 0
p4046 1
q4046 0
p4047 1
q4047 0
p4048 0
q4048 1
p4049 1
q4049 0
p4142 1
q4142 0
p4143 1
q4143 1
p4144 1
q4144 0
p4145 1
q4145 0
p4146 1
q4146 0
p4147 1
q4147 0
p4148 0
q4148 1
p4149 1
q4149 0
p4243 0
q4243 0
p4244 0
q4244 0
p4245 0
q4245 0
p4246 0
q4246 0
p4247 0
q4247 0
p4248 0
q4248 0
p4249 0
q4249 0
p4344 1
q4344 0
p4345 1
q4345 0
p4346 1
q4346 0
p4347 1
q4347 0
p4348 1
q4348 0
p4349 1
q4349 0
p4445 0
q4445 1
p4446 0
q4446 0
p4447 0
q4447 0
p4448 0
q4448 0
p4449 0
q4449 0
p4546 0
q4546 0
p4547 0
q4547 0
p4548 0
q4548 0
p4549 0
q4549 0
p4647 1
q4647 1
p4648 0
q4648 1
p4649 1
q4649 1
p4748 0
q4748 1
p4749 0
q4749 1
p4849 1
q4849 1
